261 864
248 678
439 453
407 294
335 256
278 256
77 310
48 462
131 933
92 1023
37 1023
180 1306
166 1436
127 1436
258 1436
361 1422
404 1422
404 1272
371 1198
294 1123
425 1123
493 1129
521 1059
576 1006
580 996
681 902
681 777
718 760
802 760
888 784
968 727
1001 690
1000 594
1041 484
1114 484
1179 518
1279 509
1302 581
1302 645
1472 694
1472 561
1429 524
1429 418
1318 394
1212 333
1098 284
1028 284
1025 284
948 360
897 360
739 360
717 360
659 375
968 892
983 976
928 994
914 1233
914 1340
963 1370
963 1396
1081 1202
1165 1148
1238 1148
1288 1299
1413 1299
1413 1096
1378 1008
1386 983
1296 983
734 1340
706 1340
635 1432
461 850
450 850
558 202
853 93
1199 103
1232 25
1457 25
1466 25
1466 10
